NAME : tsp30_30.171.tour
COMMENT : Length = 171
COMMENT : Found by LKH [Keld Helsgaun]
TYPE : TOUR
DIMENSION : 30
TOUR_SECTION
1
9
19
28
2
5
12
7
6
14
3
15
13
10
26
18
16
8
29
25
23
27
4
22
11
30
24
17
21
20
-1
EOF
